* #variable= 20 #constraint= 31 #product= 46 sizeproduct= 92
****************************************
* begin normalizer comments
* category= OPT-SMALLINT-NLC
* end normalizer comments
****************************************
min: -1 x1 -1 x2 -1 x3 -1 x4 -1 x5 -1 x6 -1 x7 -1 x8 -1 x9 -1 x10 ;
-1 x1 x16 -1 x1 x13 -1 x1 x17 -1 x1 x20 -1 x1 x12 -1 x1 x14 -1 x1 x19 >= -1 ;
-1 x6 x11 -1 x3 x11 -1 x7 x11 -1 x10 x11 -1 x2 x11 -1 x4 x11 -1 x9 x11 >= -1 ;
-1 x2 x11 -1 x2 x14 -1 x2 x17 -1 x2 x19 -1 x2 x20 >= -1 ;
-1 x1 x12 -1 x4 x12 -1 x7 x12 -1 x9 x12 -1 x10 x12 >= -1 ;
-1 x3 x11 -1 x3 x19 -1 x3 x17 -1 x3 x15 >= -1 ;
-1 x1 x13 -1 x9 x13 -1 x7 x13 -1 x5 x13 >= -1 ;
-1 x4 x11 -1 x4 x12 -1 x4 x16 -1 x4 x20 -1 x4 x15 >= -1 ;
-1 x1 x14 -1 x2 x14 -1 x6 x14 -1 x10 x14 -1 x5 x14 >= -1 ;
-1 x5 x13 -1 x5 x14 -1 x5 x18 -1 x5 x17 -1 x5 x16 >= -1 ;
-1 x3 x15 -1 x4 x15 -1 x8 x15 -1 x7 x15 -1 x6 x15 >= -1 ;
-1 x6 x11 -1 x6 x14 -1 x6 x15 -1 x6 x18 >= -1 ;
-1 x1 x16 -1 x4 x16 -1 x5 x16 -1 x8 x16 >= -1 ;
-1 x7 x11 -1 x7 x12 -1 x7 x13 -1 x7 x15 >= -1 ;
-1 x1 x17 -1 x2 x17 -1 x3 x17 -1 x5 x17 >= -1 ;
-1 x8 x15 -1 x8 x16 -1 x8 x19 -1 x8 x20 >= -1 ;
-1 x5 x18 -1 x6 x18 -1 x9 x18 -1 x10 x18 >= -1 ;
-1 x9 x11 -1 x9 x12 -1 x9 x13 -1 x9 x18 >= -1 ;
-1 x1 x19 -1 x2 x19 -1 x3 x19 -1 x8 x19 >= -1 ;
-1 x10 x11 -1 x10 x12 -1 x10 x14 -1 x10 x18 >= -1 ;
-1 x1 x20 -1 x2 x20 -1 x4 x20 -1 x8 x20 >= -1 ;
-1 x1 -1 x11 >= -1 ;
-1 x2 -1 x12 >= -1 ;
-1 x3 -1 x13 >= -1 ;
-1 x4 -1 x14 >= -1 ;
-1 x5 -1 x15 >= -1 ;
-1 x6 -1 x16 >= -1 ;
-1 x7 -1 x17 >= -1 ;
-1 x8 -1 x18 >= -1 ;
-1 x9 -1 x19 >= -1 ;
-1 x10 -1 x20 >= -1 ;
+1 x1 -1 x11 +1 x2 -1 x12 +1 x3 -1 x13 +1 x4 -1 x14 +1 x5 -1 x15 +1 x6 -1 x16 +1 x7 -1 x17 +1 x8 -1 x18 +1 x9 -1 x19 +1 x10 -1 x20 = 0 ;
